






































































































65 3 52 25 68 48 12 
35 5 31 56 39 44 26 
50 46 6 71 19 24 
45 54 1 40 0 27 47 
43 28 4 49 61 17 
64 59 10 21 62 75 66 
9 42 23 16 58 32 67 76 
2 41 74 70 60 20 8 
14 33 36 69 51 22 
63 29 55 30 38 73 18 
72 37 34 
57 13 53 15 7 11 
